252338
64,10,13,46,48,22,35,61,23,50,53,83,55,25,60,42,79,4,63,39,3,43,72,6,16,78,28,8,51,69,12,15,57,47,49,81,34,24,18,1,73,26,67,62,80,14,76,70,45,21,65,37,19,59,32,7,33,17,56,77,71,66,36,20,9,58,30,2,75,27,38,11,82,31,44,40,68,52,41,74,5,54,29